c Sudoku solution
p cnf 729 0
144 0
173 0
195 0
219 0
291 0
328 0
363 0
397 0
437 0
543 0
568 0
647 0
652 0
688 0
418 0
158 0
278 0
693 0
423 0
233 0
727 0
117 0
762 0
798 0
839 0
938 0
848 0
865 0
877 0
587 0
911 0
922 0
949 0
957 0
983 0
975 0
267 0
485 0
555 0
256 0
779 0
284 0
242 0
345 0
225 0
824 0
754 0
853 0
741 0
966 0
786 0
881 0
892 0
994 0
713 0
816 0
735 0
615 0
446 0
376 0
596 0
499 0
472 0
571 0
674 0
464 0
451 0
669 0
529 0
359 0
161 0
126 0
132 0
331 0
314 0
189 0
382 0
512 0
534 0
621 0
636 0
